 vasp.5.3.5 31Mar14 (build Jun 01 2017 17:55:53) complex

 executed on             LinuxIFC date 2020.11.10  15:17:08

 INCAR:
 POTCAR:   PAW_PBE Si 05Jan2001
 POTCAR:   PAW_PBE Si 05Jan2001
   VRHFIN =Si: s2p2

   TITEL  = PAW_PBE Si 05Jan2001
   POMASS =   28.085; ZVAL   =    4.000    mass and valenz
   ENMAX  =  245.345; ENMIN  =  184.009 eV
   QCUT   =   -4.246; QGAM   =    8.493    optimization parameters

   Description
     l     E      TYP  RCUT    TYP  RCUT
     0   .000     23  1.900
     0   .000     23  1.900
     1   .000     23  1.900
     1   .000     23  1.900
     2   .000      7  1.900

 PAW_PBE Si 05Jan2001                   :

 POSCAR: Si
  positions in direct lattice
  velocities in cartesian coordinates
 exchange correlation table for  LEXCH =        8
   RHO(1)=    0.500       N(1)  =     2000
   RHO(2)=  100.500       N(2)  =     4000

 ion  position               nearest neighbor table
   1  0.000  0.000  0.000-   2 2.15   2 2.15   2 2.15   2 2.15
   2  0.250  0.250  0.250-   1 2.15   1 2.15   1 2.15   1 2.15

  LATTYP: Found a face centered cubic cell.
 ALAT       =     4.9652123150

  Lattice vectors:

 A1 = (   0.0000000000,   2.4826061575,   2.4826061575)
 A2 = (   2.4826061575,   0.0000000000,   2.4826061575)
 A3 = (   2.4826061575,   2.4826061575,   0.0000000000)

Analysis of symmetry for initial positions (statically):
 Subroutine PRICEL returns:
 Original cell was already a primitive cell.

 Routine SETGRP: Setting up the symmetry group for a
 face centered cubic supercell.

 Subroutine GETGRP returns: Found 48 space group operations
 (whereof 24 operations were pure point group operations)
 out of a pool of 48 trial point group operations.

The static configuration has the point symmetry T_d .
 The point group associated with its full space group is O_h .

Analysis of symmetry for dynamics (positions and initial velocities):
 Subroutine PRICEL returns:
 Original cell was already a primitive cell.

[...]

The dynamic configuration has the point symmetry T_d .
 The point group associated with its full space group is O_h .

Analysis of constrained symmetry for selective dynamics:
 Subroutine PRICEL returns:
 Original cell was already a primitive cell.

 Routine SETGRP: Setting up the symmetry group for a
 face centered cubic supercell.

 Subroutine GETGRP returns: Found 48 space group operations
 (whereof 24 operations were pure point group operations)
 out of a pool of 48 trial point group operations.

The constrained configuration has the point symmetry T_d .
 The point group associated with its full space group is O_h .

 KPOINTS: Gamma centered Monkhorst-Pack

Automatic generation of k-mesh.
Space group operators:
 irot       det(A)        alpha          n_x          n_y          n_z        tau_x        tau_y        tau_z
    1     1.000000     0.000001     1.000000     0.000000     0.000000     0.000000     0.000000     0.000000
    2     1.000000   120.000000    -0.577350    -0.577350    -0.577350     0.000000     0.000000     0.000000
    3     1.000000   120.000000     0.577350     0.577350     0.577350     0.000000     0.000000     0.000000
    4    -1.000000    90.000000     0.000000     0.000000    -1.000000     0.000000     0.000000     0.000000
    5    -1.000000   180.000000     0.000000     0.707107     0.707107     0.000000     0.000000     0.000000
    6    -1.000000    90.000000     0.000000     1.000000     0.000000     0.000000     0.000000     0.000000
    7     1.000000   180.000000     0.000000     0.000000     1.000000     0.000000     0.000000     0.000000
    8     1.000000   120.000000    -0.577350     0.577350     0.577350     0.000000     0.000000     0.000000
    9     1.000000   120.000000    -0.577350     0.577350    -0.577350     0.000000     0.000000     0.000000
   10    -1.000000    90.000000     0.000000     0.000000     1.000000     0.000000     0.000000     0.000000
   11    -1.000000    90.000000    -1.000000     0.000000     0.000000     0.000000     0.000000     0.000000
   12    -1.000000   180.000000     0.707107     0.000000     0.707107     0.000000     0.000000     0.000000
   13     1.000000   120.000000     0.577350    -0.577350     0.577350     0.000000     0.000000     0.000000
   14     1.000000   120.000000    -0.577350    -0.577350     0.577350     0.000000     0.000000     0.000000
   15     1.000000   180.000000     1.000000     0.000000     0.000000     0.000000     0.000000     0.000000
   16    -1.000000    90.000000     0.000000    -1.000000     0.000000     0.000000     0.000000     0.000000
   17    -1.000000   180.000000     0.707107     0.707107     0.000000     0.000000     0.000000     0.000000
   18    -1.000000    90.000000     1.000000     0.000000     0.000000     0.000000     0.000000     0.000000
   19     1.000000   120.000000     0.577350    -0.577350    -0.577350     0.000000     0.000000     0.000000
   20     1.000000   180.000000     0.000000     1.000000     0.000000     0.000000     0.000000     0.000000
   21     1.000000   120.000000     0.577350     0.577350    -0.577350     0.000000     0.000000     0.000000
   22    -1.000000   180.000000     0.000000    -0.707107     0.707107     0.000000     0.000000     0.000000
   23    -1.000000   180.000000     0.707107    -0.707107     0.000000     0.000000     0.000000     0.000000
   24    -1.000000   180.000000     0.707107     0.000000    -0.707107     0.000000     0.000000     0.000000
   25    -1.000000     0.000001     1.000000     0.000000     0.000000     0.250000     0.250000     0.250000
   26    -1.000000   120.000000    -0.577350    -0.577350    -0.577350     0.250000     0.250000     0.250000
   27    -1.000000   120.000000     0.577350     0.577350     0.577350     0.250000     0.250000     0.250000
   28     1.000000    90.000000     0.000000     0.000000    -1.000000     0.250000     0.250000     0.250000
   29     1.000000   180.000000     0.000000     0.707107     0.707107     0.250000     0.250000     0.250000
   30     1.000000    90.000000     0.000000     1.000000     0.000000     0.250000     0.250000     0.250000
   31    -1.000000   180.000000     0.000000     0.000000     1.000000     0.250000     0.250000     0.250000
   32    -1.000000   120.000000    -0.577350     0.577350     0.577350     0.250000     0.250000     0.250000
   33    -1.000000   120.000000    -0.577350     0.577350    -0.577350     0.250000     0.250000     0.250000
   34     1.000000    90.000000     0.000000     0.000000     1.000000     0.250000     0.250000     0.250000
   35     1.000000    90.000000    -1.000000     0.000000     0.000000     0.250000     0.250000     0.250000
   36     1.000000   180.000000     0.707107     0.000000     0.707107     0.250000     0.250000     0.250000
   37    -1.000000   120.000000     0.577350    -0.577350     0.577350     0.250000     0.250000     0.250000
   38    -1.000000   120.000000    -0.577350    -0.577350     0.577350     0.250000     0.250000     0.250000
   39    -1.000000   180.000000     1.000000     0.000000     0.000000     0.250000     0.250000     0.250000
   40     1.000000    90.000000     0.000000    -1.000000     0.000000     0.250000     0.250000     0.250000
   41     1.000000   180.000000     0.707107     0.707107     0.000000     0.250000     0.250000     0.250000
   42     1.000000    90.000000     1.000000     0.000000     0.000000     0.250000     0.250000     0.250000
   43    -1.000000   120.000000     0.577350    -0.577350    -0.577350     0.250000     0.250000     0.250000
   44    -1.000000   180.000000     0.000000     1.000000     0.000000     0.250000     0.250000     0.250000
   45    -1.000000   120.000000     0.577350     0.577350    -0.577350     0.250000     0.250000     0.250000
   46     1.000000   180.000000     0.000000    -0.707107     0.707107     0.250000     0.250000     0.250000
   47     1.000000   180.000000     0.707107    -0.707107     0.000000     0.250000     0.250000     0.250000
   48     1.000000   180.000000     0.707107     0.000000    -0.707107     0.250000     0.250000     0.250000

 Subroutine IBZKPT returns following result:

 Found     72 irreducible k-points:

 Following reciprocal coordinates:
            Coordinates               Weight
  0.000000  0.000000  0.000000      1.000000
  0.083333  0.000000  0.000000      8.000000
  0.166667  0.000000  0.000000      8.000000
  0.250000  0.000000  0.000000      8.000000
  0.333333  0.000000  0.000000      8.000000
  0.416667  0.000000  0.000000      8.000000
  0.500000  0.000000  0.000000      4.000000
  0.083333  0.083333  0.000000      6.000000
  0.166667  0.083333  0.000000     24.000000
  0.250000  0.083333  0.000000     24.000000
  0.333333  0.083333  0.000000     24.000000
  0.416667  0.083333  0.000000     24.000000
  0.500000  0.083333  0.000000     24.000000
 -0.416667  0.083333  0.000000     24.000000
 -0.333333  0.083333  0.000000     24.000000
 -0.250000  0.083333  0.000000     24.000000
 -0.166667  0.083333  0.000000     24.000000
 -0.083333  0.083333  0.000000     12.000000
  0.166667  0.166667  0.000000      6.000000
  0.250000  0.166667  0.000000     24.000000
  0.333333  0.166667  0.000000     24.000000
  0.416667  0.166667  0.000000     24.000000
  0.500000  0.166667  0.000000     24.000000
 -0.416667  0.166667  0.000000     24.000000
 -0.333333  0.166667  0.000000     24.000000
 -0.250000  0.166667  0.000000     24.000000
 -0.166667  0.166667  0.000000     12.000000
  0.250000  0.250000  0.000000      6.000000
  0.333333  0.250000  0.000000     24.000000
  0.416667  0.250000  0.000000     24.000000
  0.500000  0.250000  0.000000     24.000000
 -0.416667  0.250000  0.000000     24.000000
 -0.333333  0.250000  0.000000     24.000000
 -0.250000  0.250000  0.000000     12.000000
  0.333333  0.333333  0.000000      6.000000
  0.416667  0.333333  0.000000     24.000000
  0.500000  0.333333  0.000000     24.000000
 -0.416667  0.333333  0.000000     24.000000
 -0.333333  0.333333  0.000000     12.000000
  0.416667  0.416667  0.000000      6.000000
  0.500000  0.416667  0.000000     24.000000
 -0.416667  0.416667  0.000000     12.000000
  0.500000  0.500000  0.000000      3.000000
  0.250000  0.166667  0.083333     24.000000
  0.333333  0.166667  0.083333     48.000000
  0.416667  0.166667  0.083333     48.000000
  0.500000  0.166667  0.083333     48.000000
 -0.416667  0.166667  0.083333     24.000000
  0.333333  0.250000  0.083333     24.000000
  0.416667  0.250000  0.083333     48.000000
  0.500000  0.250000  0.083333     48.000000
 -0.416667  0.250000  0.083333     48.000000
 -0.333333  0.250000  0.083333     48.000000
 -0.250000  0.250000  0.083333     48.000000
 -0.166667  0.250000  0.083333     24.000000
  0.416667  0.333333  0.083333     24.000000
  0.500000  0.333333  0.083333     48.000000
 -0.416667  0.333333  0.083333     48.000000
 -0.333333  0.333333  0.083333     48.000000
 -0.250000  0.333333  0.083333     24.000000
  0.500000  0.416667  0.083333     24.000000
 -0.416667  0.416667  0.083333     48.000000
 -0.333333  0.416667  0.083333     24.000000
 -0.416667  0.500000  0.083333     12.000000
  0.500000  0.333333  0.166667     24.000000
[...]
   0.25000000  0.00000000  0.00000000       0.005
   0.33333333  0.00000000  0.00000000       0.005
   0.41666667  0.00000000  0.00000000       0.005
   0.50000000  0.00000000  0.00000000       0.002
   0.08333333  0.08333333  0.00000000       0.003
   0.16666667  0.08333333  0.00000000       0.014
   0.25000000  0.08333333  0.00000000       0.014
   0.33333333  0.08333333  0.00000000       0.014
   0.41666667  0.08333333  0.00000000       0.014
   0.50000000  0.08333333  0.00000000       0.014
  -0.41666667  0.08333333  0.00000000       0.014
  -0.33333333  0.08333333  0.00000000       0.014
  -0.25000000  0.08333333  0.00000000       0.014
  -0.16666667  0.08333333  0.00000000       0.014
  -0.08333333  0.08333333  0.00000000       0.007
   0.16666667  0.16666667  0.00000000       0.003
   0.25000000  0.16666667  0.00000000       0.014
   0.33333333  0.16666667  0.00000000       0.014
   0.41666667  0.16666667  0.00000000       0.014
   0.50000000  0.16666667  0.00000000       0.014
  -0.41666667  0.16666667  0.00000000       0.014
  -0.33333333  0.16666667  0.00000000       0.014
  -0.25000000  0.16666667  0.00000000       0.014
  -0.16666667  0.16666667  0.00000000       0.007
   0.25000000  0.25000000  0.00000000       0.003
   0.33333333  0.25000000  0.00000000       0.014
   0.41666667  0.25000000  0.00000000       0.014
   0.50000000  0.25000000  0.00000000       0.014
  -0.41666667  0.25000000  0.00000000       0.014
  -0.33333333  0.25000000  0.00000000       0.014
  -0.25000000  0.25000000  0.00000000       0.007
   0.33333333  0.33333333  0.00000000       0.003
   0.41666667  0.33333333  0.00000000       0.014
   0.50000000  0.33333333  0.00000000       0.014
  -0.41666667  0.33333333  0.00000000       0.014
  -0.33333333  0.33333333  0.00000000       0.007
   0.41666667  0.41666667  0.00000000       0.003
   0.50000000  0.41666667  0.00000000       0.014
  -0.41666667  0.41666667  0.00000000       0.007
   0.50000000  0.50000000  0.00000000       0.002
   0.25000000  0.16666667  0.08333333       0.014
   0.33333333  0.16666667  0.08333333       0.028
   0.41666667  0.16666667  0.08333333       0.028
   0.50000000  0.16666667  0.08333333       0.028
  -0.41666667  0.16666667  0.08333333       0.014
   0.33333333  0.25000000  0.08333333       0.014
   0.41666667  0.25000000  0.08333333       0.028
   0.50000000  0.25000000  0.08333333       0.028
  -0.41666667  0.25000000  0.08333333       0.028
  -0.33333333  0.25000000  0.08333333       0.028
  -0.25000000  0.25000000  0.08333333       0.028
  -0.16666667  0.25000000  0.08333333       0.014
   0.41666667  0.33333333  0.08333333       0.014
   0.50000000  0.33333333  0.08333333       0.028
  -0.41666667  0.33333333  0.08333333       0.028
  -0.33333333  0.33333333  0.08333333       0.028
  -0.25000000  0.33333333  0.08333333       0.014
   0.50000000  0.41666667  0.08333333       0.014
  -0.41666667  0.41666667  0.08333333       0.028
  -0.33333333  0.41666667  0.08333333       0.014
  -0.41666667  0.50000000  0.08333333       0.007
   0.50000000  0.33333333  0.16666667       0.014
  -0.41666667  0.33333333  0.16666667       0.028
  -0.33333333  0.33333333  0.16666667       0.014
  -0.41666667  0.41666667  0.16666667       0.014
  -0.33333333  0.41666667  0.16666667       0.028
  -0.25000000  0.41666667  0.16666667       0.014
  -0.33333333  0.50000000  0.16666667       0.007
  -0.25000000  0.50000000  0.25000000       0.003

 position of ions in fractional coordinates (direct lattice)
   0.00000000  0.00000000  0.00000000
   0.25000000  0.25000000  0.25000000

 position of ions in cartesian coordinates  (Angst):
   0.00000000  0.00000000  0.00000000
   1.24130308  1.24130308  1.24130308

 k-point  1 :   0.0000 0.0000 0.0000  plane waves:     965
 k-point  2 :   0.0833 0.0000 0.0000  plane waves:     992
 k-point  3 :   0.1667 0.0000 0.0000  plane waves:     995
 k-point  4 :   0.2500 0.0000 0.0000  plane waves:    1013
 k-point  5 :   0.3333 0.0000 0.0000  plane waves:    1008
 k-point  6 :   0.4167 0.0000 0.0000  plane waves:    1023
 k-point  7 :   0.5000 0.0000 0.0000  plane waves:    1008
 k-point  8 :   0.0833 0.0833 0.0000  plane waves:    1002
 k-point  9 :   0.1667 0.0833 0.0000  plane waves:     994
 k-point 10 :   0.2500 0.0833 0.0000  plane waves:    1010
 k-point 11 :   0.3333 0.0833 0.0000  plane waves:    1020
 k-point 12 :   0.4167 0.0833 0.0000  plane waves:    1017
 k-point 13 :   0.5000 0.0833 0.0000  plane waves:    1021
 k-point 14 :  -0.4167 0.0833 0.0000  plane waves:    1026
 k-point 15 :  -0.3333 0.0833 0.0000  plane waves:    1023
 k-point 16 :  -0.2500 0.0833 0.0000  plane waves:    1016
 k-point 17 :  -0.1667 0.0833 0.0000  plane waves:    1007
 k-point 18 :  -0.0833 0.0833 0.0000  plane waves:     997
 k-point 19 :   0.1667 0.1667 0.0000  plane waves:     998
 k-point 20 :   0.2500 0.1667 0.0000  plane waves:    1006
 k-point 21 :   0.3333 0.1667 0.0000  plane waves:    1022
 k-point 22 :   0.4167 0.1667 0.0000  plane waves:    1018
 k-point 23 :   0.5000 0.1667 0.0000  plane waves:    1029
 k-point 24 :  -0.4167 0.1667 0.0000  plane waves:    1016
 k-point 25 :  -0.3333 0.1667 0.0000  plane waves:    1019
 k-point 26 :  -0.2500 0.1667 0.0000  plane waves:    1019
 k-point 27 :  -0.1667 0.1667 0.0000  plane waves:    1013
 k-point 28 :   0.2500 0.2500 0.0000  plane waves:    1022
 k-point 29 :   0.3333 0.2500 0.0000  plane waves:    1022
 k-point 30 :   0.4167 0.2500 0.0000  plane waves:    1029
 k-point 31 :   0.5000 0.2500 0.0000  plane waves:    1027
 k-point 32 :  -0.4167 0.2500 0.0000  plane waves:    1024
 k-point 33 :  -0.3333 0.2500 0.0000  plane waves:    1017
 k-point 34 :  -0.2500 0.2500 0.0000  plane waves:    1019
 k-point 35 :   0.3333 0.3333 0.0000  plane waves:    1030
 k-point 36 :   0.4167 0.3333 0.0000  plane waves:    1028
 k-point 37 :   0.5000 0.3333 0.0000  plane waves:    1026
 k-point 38 :  -0.4167 0.3333 0.0000  plane waves:    1023
 k-point 39 :  -0.3333 0.3333 0.0000  plane waves:    1031
 k-point 40 :   0.4167 0.4167 0.0000  plane waves:    1018
 k-point 41 :   0.5000 0.4167 0.0000  plane waves:    1018
 k-point 42 :  -0.4167 0.4167 0.0000  plane waves:    1025
 k-point 43 :   0.5000 0.5000 0.0000  plane waves:    1034
 k-point 44 :   0.2500 0.1667 0.0833  plane waves:    1016
 k-point 45 :   0.3333 0.1667 0.0833  plane waves:    1013
 k-point 46 :   0.4167 0.1667 0.0833  plane waves:    1020
 k-point 47 :   0.5000 0.1667 0.0833  plane waves:    1023
 k-point 48 :  -0.4167 0.1667 0.0833  plane waves:    1028
 k-point 49 :   0.3333 0.2500 0.0833  plane waves:    1019
 k-point 50 :   0.4167 0.2500 0.0833  plane waves:    1026
 k-point 51 :   0.5000 0.2500 0.0833  plane waves:    1023
 k-point 52 :  -0.4167 0.2500 0.0833  plane waves:    1027
 k-point 53 :  -0.3333 0.2500 0.0833  plane waves:    1022
 k-point 54 :  -0.2500 0.2500 0.0833  plane waves:    1024
 k-point 55 :  -0.1667 0.2500 0.0833  plane waves:    1017
 k-point 56 :   0.4167 0.3333 0.0833  plane waves:    1021
 k-point 57 :   0.5000 0.3333 0.0833  plane waves:    1027
 k-point 58 :  -0.4167 0.3333 0.0833  plane waves:    1026
 k-point 59 :  -0.3333 0.3333 0.0833  plane waves:    1021
 k-point 60 :  -0.2500 0.3333 0.0833  plane waves:    1024
 k-point 61 :   0.5000 0.4167 0.0833  plane waves:    1020
 k-point 62 :  -0.4167 0.4167 0.0833  plane waves:    1023
 k-point 63 :  -0.3333 0.4167 0.0833  plane waves:    1016
 k-point 64 :  -0.4167 0.5000 0.0833  plane waves:    1012
 k-point 65 :   0.5000 0.3333 0.1667  plane waves:    1032
 k-point 66 :  -0.4167 0.3333 0.1667  plane waves:    1029
 k-point 67 :  -0.3333 0.3333 0.1667  plane waves:    1032
 k-point 68 :  -0.4167 0.4167 0.1667  plane waves:    1029
 k-point 69 :  -0.3333 0.4167 0.1667  plane waves:    1027
 k-point 70 :  -0.2500 0.4167 0.1667  plane waves:    1027
 k-point 71 :  -0.3333 0.5000 0.1667  plane waves:    1016
 k-point 72 :  -0.2500 0.5000 0.2500  plane waves:    1036

 maximum and minimum number of plane-waves per node :      1036      965

 maximum number of plane-waves:      1036
 maximum index in each direction:
   IXMAX=    7   IYMAX=    6   IZMAX=    7
   IXMIN=   -7   IYMIN=   -7   IZMIN=   -7

 WARNING: aliasing errors must be expected set NGX to  30 to avoid them
 WARNING: aliasing errors must be expected set NGY to  28 to avoid them
 WARNING: aliasing errors must be expected set NGZ to  30 to avoid them
 aliasing errors are usually negligible using standard VASP settings
 and one can safely disregard these warnings

 serial   3D FFT for wavefunctions
 parallel 3D FFT for charge:
    minimum data exchange during FFTs selected (reduces bandwidth)

 Broyden mixing: mesh for mixing (old mesh)
   NGX = 13   NGY = 13   NGZ = 13
  (NGX  = 48   NGY  = 48   NGZ  = 48)
  gives a total of   2197 points

 initial charge density was supplied:
 charge density of overlapping atoms calculated
 number of electron       8.0000000 magnetization
 keeping initial charge density in first step

 Maximum index for augmentation-charges         3633 (set IRDMAX)

 First call to EWALD:  gamma=   0.567
 Maximum number of real-space cells 3x 3x 3
 Maximum number of reciprocal cells 3x 3x 3

 FEWALD executed in parallel

----------------------------------------- Iteration    1(   1)  ---------------------------------------

 eigenvalue-minimisations  :  1152
 total energy-change (2. order) : 0.1060281E+02  (-0.3865723E+03)
 number of electron       8.0000000 magnetization
 augmentation part        8.0000000 magnetization

 Free energy of the ion-electron system (eV)
  alpha Z        PSCENC =         4.40007764
  Ewald energy   TEWEN  =      -249.95908767
  -Hartree energ DENC   =        -7.35272347
  -exchange      EXHF   =         0.00000000
  -V(xc)+E(xc)   XCENC  =       -17.46256520
  PAW double counting   =        65.95520812      -30.76852678
  entropy T*S    EENTRO =        -0.00096774
  eigenvalues    EBANDS =        39.65827342
  atomic energy  EATOM  =       206.13311910
  free energy    TOTEN  =        10.60280741 eV

  energy without entropy =       10.60377515  energy(sigma->0) =       10.60329128

[...]

 eigenvalue-minimisations  :  1808
 total energy-change (2. order) :-0.2043495E+02  (-0.2001060E+02)
 number of electron       8.0000000 magnetization
 augmentation part        8.0000000 magnetization

[...]

 Broyden mixing:
  rms(total) = 0.37387E+00    rms(broyden)= 0.37387E+00
  rms(prec ) = 0.11566E+01
  weight for this iteration     100.00

[...]

 eigenvalues of (default mixing * dielectric matrix)
  average eigenvalue GAMMA=   2.2876
  2.2876

[...]

 eigenvalue-minimisations  :   768
 total energy-change (2. order) : 0.5442473E-09  ( 0.4658562E-13)
 number of electron       8.0000000 magnetization
 augmentation part       -0.4785815 magnetization

[...]

 eigenvalue-minimisations  :   696
 total energy-change (2. order) :-0.1418528E-09  (-0.2780960E-13)
 number of electron       8.0000000 magnetization
 augmentation part       -0.4785815 magnetization

[...]

 eigenvalue-minimisations  :   672
 total energy-change (2. order) : 0.2183356E-09  ( 0.9089396E-14)
 number of electron       8.0000000 magnetization
 augmentation part       -0.4785815 magnetization

[...]

 eigenvalue-minimisations  :   640
 total energy-change (2. order) :-0.5564402E-09  ( 0.4637544E-13)
 number of electron       8.0000000 magnetization
 augmentation part       -0.4785815 magnetization

[...]

 eigenvalue-minimisations  :   656
 total energy-change (2. order) : 0.1073033E-08  (-0.2998463E-13)
 number of electron       8.0000000 magnetization
 augmentation part       -0.4785815 magnetization

 Broyden mixing:
  rms(total) = 0.62614E-10    rms(broyden)= 0.57734E-10
  rms(prec ) = 0.17988E-09
  weight for this iteration     100.00

 eigenvalues of (default mixing * dielectric matrix)
  average eigenvalue GAMMA=   1.8694
  3.6185  3.1026  2.0971  2.8698  2.7283  2.6351  2.6351  2.4987  1.0261  1.0261
  1.0053  1.0053  0.9788  0.9683  0.9683  0.7470

[...]

----------------------------------------- Iteration    1(  22)  ---------------------------------------

 eigenvalue-minimisations  :   664
 total energy-change (2. order) :-0.1492140E-10  ( 0.6912279E-14)
 number of electron       8.0000000 magnetization
 augmentation part       -0.4785815 magnetization

 Free energy of the ion-electron system (eV)
  alpha Z        PSCENC =         4.40007764
  Ewald energy   TEWEN  =      -249.95908767
  -Hartree energ DENC   =       -11.85180541
  -exchange      EXHF   =         0.00000000
  -V(xc)+E(xc)   XCENC  =       -16.66764207
  PAW double counting   =        86.06625848      -51.41303348
  entropy T*S    EENTRO =        -0.00028370
  eigenvalues    EBANDS =        23.61964980
  atomic energy  EATOM  =       206.13311910
  free energy    TOTEN  =        -9.67274731 eV

  energy without entropy =       -9.67246361  energy(sigma->0) =       -9.67260546

 average (electrostatic) potential at core
  the test charge radii are     0.9892
  (the norm of the test charge is              1.0000)
       1 -79.9871       2 -79.9871

 E-fermi :   8.8657     XC(G=0): -10.4992     alpha+bet :-15.6750

 k-point     1 :       0.0000    0.0000    0.0000
  band No.  band energies     occupation
      1      -5.1324      2.00000
      2       8.9033      0.36342
      3       8.9033      0.36342
      4       8.9033      0.36342
      5      11.5294      0.00000
      6      11.5294      0.00000
      7      11.5294      0.00000
      8      15.6165      0.00000

[...]

 k-point    72 :      -0.2500    0.5000    0.2500
  band No.  band energies     occupation
      1       0.4082      2.00000
      2       0.4082      2.00000
      3       3.7538      2.00000
      4       3.7538      2.00000
      5      13.0996      0.00000
      6      13.0996      0.00000
      7      14.7422      0.00000
      8      14.7422      0.00000

 soft charge-density along one line, spin component           1
         0         1         2         3         4         5         6         7         8         9
 total charge-density along one line

------------------------ aborting loop because EDIFF is reached ----------------------------------------

  FORCE on cell =-STRESS in cart. coord.  units (eV):
  Direction    XX          YY          ZZ          XY          YZ          ZX
  Alpha Z     4.40008     4.40008     4.40008
  Ewald     -83.31973   -83.31973   -83.31973     0.00000     0.00000     0.00000
  Hartree     3.95060     3.95060     3.95060     0.00000     0.00000     0.00000
  E(xc)     -27.13943   -27.13943   -27.13943     0.00000     0.00000     0.00000
  Local     -25.96261   -25.96261   -25.96261     0.00001     0.00001     0.00001
  n-local    86.15969    87.72100    81.44165     2.96450    -1.81822     0.81024
  augment   -12.02610   -12.02610   -12.02610    -0.00001    -0.00001    -0.00001
  Kinetic    66.41177    60.84679    64.49906     3.60449    -0.11863     1.15802
  Fock        0.00000     0.00000     0.00000     0.00000     0.00000     0.00000
  Total       8.92947     8.92947     8.92947     0.00000     0.00000     0.00000
  in kB     467.50101   467.50101   467.50101     0.00000     0.00000     0.00000

 VOLUME and BASIS-vectors are now :
  energy-cutoff  :      600.00
  volume of cell :       30.60
      direct lattice vectors                 reciprocal lattice vectors
     0.000000000  2.482606158  2.482606158    -0.201401257  0.201401257  0.201401257
     2.482606158  0.000000000  2.482606158     0.201401257 -0.201401257  0.201401257
     2.482606158  2.482606158  0.000000000     0.201401257  0.201401257 -0.201401257

  length of vectors
     3.510935298  3.510935298  3.510935298     0.348837209  0.348837209  0.348837209

 FORCES acting on ions
    electron-ion (+dipol)            ewald-force                    non-local-force                 convergence-correction
   -.661E-07 -.661E-07 -.679E-07   -.961E-15 -.602E-14 -.479E-14   0.139E-15 0.104E-15 0.486E-16   0.124E-14 -.165E-14 -.835E-15
   0.661E-07 0.661E-07 0.679E-07   0.126E-14 0.604E-14 0.491E-14   -.149E-15 -.798E-16 -.382E-16   -.122E-14 -.669E-15 -.391E-15
   -.297E-13 0.199E-13 0.315E-13   0.297E-15 0.200E-16 0.121E-15   -.104E-16 0.243E-16 0.104E-16   0.138E-16 -.232E-14 -.123E-14

 POSITION                                       TOTAL-FORCE (eV/Angst)
      0.00000      0.00000      0.00000        -0.000000      0.000000      0.000000
      1.24130      1.24130      1.24130         0.000000     -0.000000     -0.000000
    total drift:                               -0.000000      0.000000      0.000000

  FREE ENERGIE OF THE ION-ELECTRON SYSTEM (eV)
  free  energy   TOTEN  =        -9.67274731 eV

  energy  without entropy=       -9.67246361  energy(sigma->0) =       -9.67260546

 writing wavefunctions