 vasp.5.3.5 31Mar14 (build Jun 01 2017 17:55:53) complex

 executed on             LinuxIFC date 2020.11.10  15:17:45

 INCAR:
 POTCAR:   PAW_PBE Si 05Jan2001
 POTCAR:   PAW_PBE Si 05Jan2001
   VRHFIN =Si: s2p2

   TITEL  = PAW_PBE Si 05Jan2001
   POMASS =   28.085; ZVAL   =    4.000    mass and valenz
   ENMAX  =  245.345; ENMIN  =  184.009 eV
   QCUT   =   -4.246; QGAM   =    8.493    optimization parameters

   Description
     l     E      TYP  RCUT    TYP  RCUT
     0   .000     23  1.900
     0   .000     23  1.900
     1   .000     23  1.900
     1   .000     23  1.900
     2   .000      7  1.900

 PAW_PBE Si 05Jan2001                   :

 POSCAR: Si
  positions in direct lattice
  velocities in cartesian coordinates
 exchange correlation table for  LEXCH =        8
   RHO(1)=    0.500       N(1)  =     2000
   RHO(2)=  100.500       N(2)  =     4000

 ion  position               nearest neighbor table
   1  0.000  0.000  0.000-   2 2.40   2 2.40   2 2.40   2 2.40
   2  0.250  0.250  0.250-   1 2.40   1 2.40   1 2.40   1 2.40

  LATTYP: Found a face centered cubic cell.
 ALAT       =     5.5425625842

  Lattice vectors:

 A1 = (   0.0000000000,   2.7712812921,   2.7712812921)
 A2 = (   2.7712812921,   0.0000000000,   2.7712812921)
 A3 = (   2.7712812921,   2.7712812921,   0.0000000000)

Analysis of symmetry for initial positions (statically):
 Subroutine PRICEL returns:
 Original cell was already a primitive cell.

 Routine SETGRP: Setting up the symmetry group for a
 face centered cubic supercell.

 Subroutine GETGRP returns: Found 48 space group operations
 (whereof 24 operations were pure point group operations)
 out of a pool of 48 trial point group operations.

The static configuration has the point symmetry T_d .
 The point group associated with its full space group is O_h .

Analysis of symmetry for dynamics (positions and initial velocities):
 Subroutine PRICEL returns:
 Original cell was already a primitive cell.

[...]

The dynamic configuration has the point symmetry T_d .
 The point group associated with its full space group is O_h .

Analysis of constrained symmetry for selective dynamics:
 Subroutine PRICEL returns:
 Original cell was already a primitive cell.

 Routine SETGRP: Setting up the symmetry group for a
 face centered cubic supercell.

 Subroutine GETGRP returns: Found 48 space group operations
 (whereof 24 operations were pure point group operations)
 out of a pool of 48 trial point group operations.

The constrained configuration has the point symmetry T_d .
 The point group associated with its full space group is O_h .

 KPOINTS: Gamma centered Monkhorst-Pack

Automatic generation of k-mesh.
Space group operators:
 irot       det(A)        alpha          n_x          n_y          n_z        tau_x        tau_y        tau_z
    1     1.000000     0.000000     1.000000     0.000000     0.000000     0.000000     0.000000     0.000000
    2     1.000000   120.000000    -0.577350    -0.577350    -0.577350     0.000000     0.000000     0.000000
    3     1.000000   120.000000     0.577350     0.577350     0.577350     0.000000     0.000000     0.000000
    4    -1.000000    90.000000     0.000000     0.000000    -1.000000     0.000000     0.000000     0.000000
    5    -1.000000   180.000000     0.000000     0.707107     0.707107     0.000000     0.000000     0.000000
    6    -1.000000    90.000000     0.000000     1.000000     0.000000     0.000000     0.000000     0.000000
    7     1.000000   180.000000     0.000000     0.000000     1.000000     0.000000     0.000000     0.000000
    8     1.000000   120.000000    -0.577350     0.577350     0.577350     0.000000     0.000000     0.000000
    9     1.000000   120.000000    -0.577350     0.577350    -0.577350     0.000000     0.000000     0.000000
   10    -1.000000    90.000000     0.000000     0.000000     1.000000     0.000000     0.000000     0.000000
   11    -1.000000    90.000000    -1.000000     0.000000     0.000000     0.000000     0.000000     0.000000
   12    -1.000000   180.000000     0.707107     0.000000     0.707107     0.000000     0.000000     0.000000
   13     1.000000   120.000000     0.577350    -0.577350     0.577350     0.000000     0.000000     0.000000
   14     1.000000   120.000000    -0.577350    -0.577350     0.577350     0.000000     0.000000     0.000000
   15     1.000000   180.000000     1.000000     0.000000     0.000000     0.000000     0.000000     0.000000
   16    -1.000000    90.000000     0.000000    -1.000000     0.000000     0.000000     0.000000     0.000000
   17    -1.000000   180.000000     0.707107     0.707107     0.000000     0.000000     0.000000     0.000000
   18    -1.000000    90.000000     1.000000     0.000000     0.000000     0.000000     0.000000     0.000000
   19     1.000000   120.000000     0.577350    -0.577350    -0.577350     0.000000     0.000000     0.000000
   20     1.000000   180.000000     0.000000     1.000000     0.000000     0.000000     0.000000     0.000000
   21     1.000000   120.000000     0.577350     0.577350    -0.577350     0.000000     0.000000     0.000000
   22    -1.000000   180.000000     0.000000    -0.707107     0.707107     0.000000     0.000000     0.000000
   23    -1.000000   180.000000     0.707107    -0.707107     0.000000     0.000000     0.000000     0.000000
   24    -1.000000   180.000000     0.707107     0.000000    -0.707107     0.000000     0.000000     0.000000
   25    -1.000000     0.000000     1.000000     0.000000     0.000000     0.250000     0.250000     0.250000
   26    -1.000000   120.000000    -0.577350    -0.577350    -0.577350     0.250000     0.250000     0.250000
   27    -1.000000   120.000000     0.577350     0.577350     0.577350     0.250000     0.250000     0.250000
   28     1.000000    90.000000     0.000000     0.000000    -1.000000     0.250000     0.250000     0.250000
   29     1.000000   180.000000     0.000000     0.707107     0.707107     0.250000     0.250000     0.250000
   30     1.000000    90.000000     0.000000     1.000000     0.000000     0.250000     0.250000     0.250000
   31    -1.000000   180.000000     0.000000     0.000000     1.000000     0.250000     0.250000     0.250000
   32    -1.000000   120.000000    -0.577350     0.577350     0.577350     0.250000     0.250000     0.250000
   33    -1.000000   120.000000    -0.577350     0.577350    -0.577350     0.250000     0.250000     0.250000
   34     1.000000    90.000000     0.000000     0.000000     1.000000     0.250000     0.250000     0.250000
   35     1.000000    90.000000    -1.000000     0.000000     0.000000     0.250000     0.250000     0.250000
   36     1.000000   180.000000     0.707107     0.000000     0.707107     0.250000     0.250000     0.250000
   37    -1.000000   120.000000     0.577350    -0.577350     0.577350     0.250000     0.250000     0.250000
   38    -1.000000   120.000000    -0.577350    -0.577350     0.577350     0.250000     0.250000     0.250000
   39    -1.000000   180.000000     1.000000     0.000000     0.000000     0.250000     0.250000     0.250000
   40     1.000000    90.000000     0.000000    -1.000000     0.000000     0.250000     0.250000     0.250000
   41     1.000000   180.000000     0.707107     0.707107     0.000000     0.250000     0.250000     0.250000
   42     1.000000    90.000000     1.000000     0.000000     0.000000     0.250000     0.250000     0.250000
   43    -1.000000   120.000000     0.577350    -0.577350    -0.577350     0.250000     0.250000     0.250000
   44    -1.000000   180.000000     0.000000     1.000000     0.000000     0.250000     0.250000     0.250000
   45    -1.000000   120.000000     0.577350     0.577350    -0.577350     0.250000     0.250000     0.250000
   46     1.000000   180.000000     0.000000    -0.707107     0.707107     0.250000     0.250000     0.250000
   47     1.000000   180.000000     0.707107    -0.707107     0.000000     0.250000     0.250000     0.250000
   48     1.000000   180.000000     0.707107     0.000000    -0.707107     0.250000     0.250000     0.250000

 Subroutine IBZKPT returns following result:

 Found     72 irreducible k-points:

 Following reciprocal coordinates:
            Coordinates               Weight
  0.000000  0.000000  0.000000      1.000000
  0.083333  0.000000  0.000000      8.000000
  0.166667  0.000000  0.000000      8.000000
  0.250000  0.000000  0.000000      8.000000
  0.333333  0.000000  0.000000      8.000000
  0.416667  0.000000  0.000000      8.000000
  0.500000  0.000000  0.000000      4.000000
  0.083333  0.083333  0.000000      6.000000
  0.166667  0.083333  0.000000     24.000000
  0.250000  0.083333  0.000000     24.000000
  0.333333  0.083333  0.000000     24.000000
  0.416667  0.083333  0.000000     24.000000
  0.500000  0.083333  0.000000     24.000000
 -0.416667  0.083333  0.000000     24.000000
 -0.333333  0.083333  0.000000     24.000000
 -0.250000  0.083333  0.000000     24.000000
 -0.166667  0.083333  0.000000     24.000000
 -0.083333  0.083333  0.000000     12.000000
  0.166667  0.166667  0.000000      6.000000
  0.250000  0.166667  0.000000     24.000000
  0.333333  0.166667  0.000000     24.000000
  0.416667  0.166667  0.000000     24.000000
  0.500000  0.166667  0.000000     24.000000
 -0.416667  0.166667  0.000000     24.000000
 -0.333333  0.166667  0.000000     24.000000
 -0.250000  0.166667  0.000000     24.000000
 -0.166667  0.166667  0.000000     12.000000
  0.250000  0.250000  0.000000      6.000000
  0.333333  0.250000  0.000000     24.000000
  0.416667  0.250000  0.000000     24.000000
  0.500000  0.250000  0.000000     24.000000
 -0.416667  0.250000  0.000000     24.000000
 -0.333333  0.250000  0.000000     24.000000
 -0.250000  0.250000  0.000000     12.000000
  0.333333  0.333333  0.000000      6.000000
  0.416667  0.333333  0.000000     24.000000
  0.500000  0.333333  0.000000     24.000000
 -0.416667  0.333333  0.000000     24.000000
 -0.333333  0.333333  0.000000     12.000000
  0.416667  0.416667  0.000000      6.000000
  0.500000  0.416667  0.000000     24.000000
 -0.416667  0.416667  0.000000     12.000000
  0.500000  0.500000  0.000000      3.000000
  0.250000  0.166667  0.083333     24.000000
  0.333333  0.166667  0.083333     48.000000
  0.416667  0.166667  0.083333     48.000000
  0.500000  0.166667  0.083333     48.000000
 -0.416667  0.166667  0.083333     24.000000
  0.333333  0.250000  0.083333     24.000000
  0.416667  0.250000  0.083333     48.000000
  0.500000  0.250000  0.083333     48.000000
 -0.416667  0.250000  0.083333     48.000000
 -0.333333  0.250000  0.083333     48.000000
 -0.250000  0.250000  0.083333     48.000000
 -0.166667  0.250000  0.083333     24.000000
  0.416667  0.333333  0.083333     24.000000
  0.500000  0.333333  0.083333     48.000000
 -0.416667  0.333333  0.083333     48.000000
 -0.333333  0.333333  0.083333     48.000000
 -0.250000  0.333333  0.083333     24.000000
  0.500000  0.416667  0.083333     24.000000
 -0.416667  0.416667  0.083333     48.000000
 -0.333333  0.416667  0.083333     24.000000
 -0.416667  0.500000  0.083333     12.000000
  0.500000  0.333333  0.166667     24.000000
[...]
   0.00000000  0.33333333  0.66666667       0.014
   0.91666667 -0.58333333 -0.25000000       0.028
   0.83333333 -0.50000000 -0.16666667       0.014
   1.00000000 -0.66666667 -0.16666667       0.014
   0.91666667 -0.58333333 -0.08333333       0.028
   0.83333333 -0.50000000  0.00000000       0.014
   1.00000000 -0.66666667  0.00000000       0.007
   1.00000000 -0.50000000  0.00000000       0.003

 k-points in reciprocal lattice and weights: Gamma centered Monkhorst-Pack
   0.00000000  0.00000000  0.00000000       0.001
   0.08333333  0.00000000  0.00000000       0.005
   0.16666667  0.00000000  0.00000000       0.005
   0.25000000  0.00000000  0.00000000       0.005
   0.33333333  0.00000000  0.00000000       0.005
   0.41666667  0.00000000  0.00000000       0.005
   0.50000000  0.00000000  0.00000000       0.002
   0.08333333  0.08333333  0.00000000       0.003
   0.16666667  0.08333333  0.00000000       0.014
   0.25000000  0.08333333  0.00000000       0.014
   0.33333333  0.08333333  0.00000000       0.014
   0.41666667  0.08333333  0.00000000       0.014
   0.50000000  0.08333333  0.00000000       0.014
  -0.41666667  0.08333333  0.00000000       0.014
  -0.33333333  0.08333333  0.00000000       0.014
  -0.25000000  0.08333333  0.00000000       0.014
  -0.16666667  0.08333333  0.00000000       0.014
  -0.08333333  0.08333333  0.00000000       0.007
   0.16666667  0.16666667  0.00000000       0.003
   0.25000000  0.16666667  0.00000000       0.014
   0.33333333  0.16666667  0.00000000       0.014
   0.41666667  0.16666667  0.00000000       0.014
   0.50000000  0.16666667  0.00000000       0.014
  -0.41666667  0.16666667  0.00000000       0.014
  -0.33333333  0.16666667  0.00000000       0.014
  -0.25000000  0.16666667  0.00000000       0.014
  -0.16666667  0.16666667  0.00000000       0.007
   0.25000000  0.25000000  0.00000000       0.003
   0.33333333  0.25000000  0.00000000       0.014
   0.41666667  0.25000000  0.00000000       0.014
   0.50000000  0.25000000  0.00000000       0.014
  -0.41666667  0.25000000  0.00000000       0.014
  -0.33333333  0.25000000  0.00000000       0.014
  -0.25000000  0.25000000  0.00000000       0.007
   0.33333333  0.33333333  0.00000000       0.003
   0.41666667  0.33333333  0.00000000       0.014
   0.50000000  0.33333333  0.00000000       0.014
  -0.41666667  0.33333333  0.00000000       0.014
  -0.33333333  0.33333333  0.00000000       0.007
   0.41666667  0.41666667  0.00000000       0.003
   0.50000000  0.41666667  0.00000000       0.014
  -0.41666667  0.41666667  0.00000000       0.007
   0.50000000  0.50000000  0.00000000       0.002
   0.25000000  0.16666667  0.08333333       0.014
   0.33333333  0.16666667  0.08333333       0.028
   0.41666667  0.16666667  0.08333333       0.028
   0.50000000  0.16666667  0.08333333       0.028
  -0.41666667  0.16666667  0.08333333       0.014
   0.33333333  0.25000000  0.08333333       0.014
   0.41666667  0.25000000  0.08333333       0.028
   0.50000000  0.25000000  0.08333333       0.028
  -0.41666667  0.25000000  0.08333333       0.028
  -0.33333333  0.25000000  0.08333333       0.028
  -0.25000000  0.25000000  0.08333333       0.028
  -0.16666667  0.25000000  0.08333333       0.014
   0.41666667  0.33333333  0.08333333       0.014
   0.50000000  0.33333333  0.08333333       0.028
  -0.41666667  0.33333333  0.08333333       0.028
  -0.33333333  0.33333333  0.08333333       0.028
  -0.25000000  0.33333333  0.08333333       0.014
   0.50000000  0.41666667  0.08333333       0.014
  -0.41666667  0.41666667  0.08333333       0.028
  -0.33333333  0.41666667  0.08333333       0.014
  -0.41666667  0.50000000  0.08333333       0.007
   0.50000000  0.33333333  0.16666667       0.014
  -0.41666667  0.33333333  0.16666667       0.028
  -0.33333333  0.33333333  0.16666667       0.014
  -0.41666667  0.41666667  0.16666667       0.014
  -0.33333333  0.41666667  0.16666667       0.028
  -0.25000000  0.41666667  0.16666667       0.014
  -0.33333333  0.50000000  0.16666667       0.007
  -0.25000000  0.50000000  0.25000000       0.003

 position of ions in fractional coordinates (direct lattice)
   0.00000000  0.00000000  0.00000000
   0.25000000  0.25000000  0.25000000

 position of ions in cartesian coordinates  (Angst):
   0.00000000  0.00000000  0.00000000
   1.38564065  1.38564065  1.38564065

 k-point  1 :   0.0000 0.0000 0.0000  plane waves:    1411
 k-point  2 :   0.0833 0.0000 0.0000  plane waves:    1429
 k-point  3 :   0.1667 0.0000 0.0000  plane waves:    1417
 k-point  4 :   0.2500 0.0000 0.0000  plane waves:    1405
 k-point  5 :   0.3333 0.0000 0.0000  plane waves:    1411
 k-point  6 :   0.4167 0.0000 0.0000  plane waves:    1422
 k-point  7 :   0.5000 0.0000 0.0000  plane waves:    1404
 k-point  8 :   0.0833 0.0833 0.0000  plane waves:    1419
 k-point  9 :   0.1667 0.0833 0.0000  plane waves:    1420
 k-point 10 :   0.2500 0.0833 0.0000  plane waves:    1414
 k-point 11 :   0.3333 0.0833 0.0000  plane waves:    1412
 k-point 12 :   0.4167 0.0833 0.0000  plane waves:    1430
 k-point 13 :   0.5000 0.0833 0.0000  plane waves:    1429
 k-point 14 :  -0.4167 0.0833 0.0000  plane waves:    1425
 k-point 15 :  -0.3333 0.0833 0.0000  plane waves:    1419
 k-point 16 :  -0.2500 0.0833 0.0000  plane waves:    1417
 k-point 17 :  -0.1667 0.0833 0.0000  plane waves:    1406
 k-point 18 :  -0.0833 0.0833 0.0000  plane waves:    1419
 k-point 19 :   0.1667 0.1667 0.0000  plane waves:    1415
 k-point 20 :   0.2500 0.1667 0.0000  plane waves:    1417
 k-point 21 :   0.3333 0.1667 0.0000  plane waves:    1418
 k-point 22 :   0.4167 0.1667 0.0000  plane waves:    1428
 k-point 23 :   0.5000 0.1667 0.0000  plane waves:    1435
 k-point 24 :  -0.4167 0.1667 0.0000  plane waves:    1420
 k-point 25 :  -0.3333 0.1667 0.0000  plane waves:    1427
 k-point 26 :  -0.2500 0.1667 0.0000  plane waves:    1412
 k-point 27 :  -0.1667 0.1667 0.0000  plane waves:    1400
 k-point 28 :   0.2500 0.2500 0.0000  plane waves:    1427
 k-point 29 :   0.3333 0.2500 0.0000  plane waves:    1417
 k-point 30 :   0.4167 0.2500 0.0000  plane waves:    1422
 k-point 31 :   0.5000 0.2500 0.0000  plane waves:    1423
 k-point 32 :  -0.4167 0.2500 0.0000  plane waves:    1430
 k-point 33 :  -0.3333 0.2500 0.0000  plane waves:    1430
 k-point 34 :  -0.2500 0.2500 0.0000  plane waves:    1428
 k-point 35 :   0.3333 0.3333 0.0000  plane waves:    1427
 k-point 36 :   0.4167 0.3333 0.0000  plane waves:    1414
 k-point 37 :   0.5000 0.3333 0.0000  plane waves:    1420
 k-point 38 :  -0.4167 0.3333 0.0000  plane waves:    1430
 k-point 39 :  -0.3333 0.3333 0.0000  plane waves:    1430
 k-point 40 :   0.4167 0.4167 0.0000  plane waves:    1403
 k-point 41 :   0.5000 0.4167 0.0000  plane waves:    1412
 k-point 42 :  -0.4167 0.4167 0.0000  plane waves:    1422
 k-point 43 :   0.5000 0.5000 0.0000  plane waves:    1428
 k-point 44 :   0.2500 0.1667 0.0833  plane waves:    1407
 k-point 45 :   0.3333 0.1667 0.0833  plane waves:    1411
 k-point 46 :   0.4167 0.1667 0.0833  plane waves:    1422
 k-point 47 :   0.5000 0.1667 0.0833  plane waves:    1424
 k-point 48 :  -0.4167 0.1667 0.0833  plane waves:    1422
 k-point 49 :   0.3333 0.2500 0.0833  plane waves:    1411
 k-point 50 :   0.4167 0.2500 0.0833  plane waves:    1414
 k-point 51 :   0.5000 0.2500 0.0833  plane waves:    1417
 k-point 52 :  -0.4167 0.2500 0.0833  plane waves:    1425
 k-point 53 :  -0.3333 0.2500 0.0833  plane waves:    1426
 k-point 54 :  -0.2500 0.2500 0.0833  plane waves:    1421
 k-point 55 :  -0.1667 0.2500 0.0833  plane waves:    1412
 k-point 56 :   0.4167 0.3333 0.0833  plane waves:    1425
 k-point 57 :   0.5000 0.3333 0.0833  plane waves:    1421
 k-point 58 :  -0.4167 0.3333 0.0833  plane waves:    1427
 k-point 59 :  -0.3333 0.3333 0.0833  plane waves:    1423
 k-point 60 :  -0.2500 0.3333 0.0833  plane waves:    1423
 k-point 61 :   0.5000 0.4167 0.0833  plane waves:    1422
 k-point 62 :  -0.4167 0.4167 0.0833  plane waves:    1418
 k-point 63 :  -0.3333 0.4167 0.0833  plane waves:    1431
 k-point 64 :  -0.4167 0.5000 0.0833  plane waves:    1416
 k-point 65 :   0.5000 0.3333 0.1667  plane waves:    1413
 k-point 66 :  -0.4167 0.3333 0.1667  plane waves:    1422
 k-point 67 :  -0.3333 0.3333 0.1667  plane waves:    1422
 k-point 68 :  -0.4167 0.4167 0.1667  plane waves:    1421
 k-point 69 :  -0.3333 0.4167 0.1667  plane waves:    1424
 k-point 70 :  -0.2500 0.4167 0.1667  plane waves:    1424
 k-point 71 :  -0.3333 0.5000 0.1667  plane waves:    1422
 k-point 72 :  -0.2500 0.5000 0.2500  plane waves:    1424

 maximum and minimum number of plane-waves per node :      1435     1400

 maximum number of plane-waves:      1435
 maximum index in each direction:
   IXMAX=    8   IYMAX=    7   IZMAX=    7
   IXMIN=   -8   IYMIN=   -8   IZMIN=   -8

 WARNING: aliasing errors must be expected set NGX to  34 to avoid them
 WARNING: aliasing errors must be expected set NGY to  32 to avoid them
 WARNING: aliasing errors must be expected set NGZ to  32 to avoid them
 aliasing errors are usually negligible using standard VASP settings
 and one can safely disregard these warnings

 serial   3D FFT for wavefunctions
 parallel 3D FFT for charge:
    minimum data exchange during FFTs selected (reduces bandwidth)

 Broyden mixing: mesh for mixing (old mesh)
   NGX = 15   NGY = 15   NGZ = 15
  (NGX  = 48   NGY  = 48   NGZ  = 48)
  gives a total of   3375 points

 initial charge density was supplied:
 charge density of overlapping atoms calculated
 number of electron       8.0000000 magnetization
 keeping initial charge density in first step

 Maximum index for augmentation-charges         2631 (set IRDMAX)

 First call to EWALD:  gamma=   0.508
 Maximum number of real-space cells 3x 3x 3
 Maximum number of reciprocal cells 3x 3x 3

 FEWALD executed in parallel

----------------------------------------- Iteration    1(   1)  ---------------------------------------

 eigenvalue-minimisations  :  1152
 total energy-change (2. order) : 0.8386559E+01  (-0.3489671E+03)
 number of electron       8.0000000 magnetization
 augmentation part        8.0000000 magnetization

 Free energy of the ion-electron system (eV)
  alpha Z        PSCENC =         3.16331175
  Ewald energy   TEWEN  =      -223.92168270
  -Hartree energ DENC   =       -11.94425652
  -exchange      EXHF   =         0.00000000
  -V(xc)+E(xc)   XCENC  =       -18.83938895
  PAW double counting   =        65.95520812      -30.76852678
  entropy T*S    EENTRO =        -0.00093439
  eigenvalues    EBANDS =        18.60970962
  atomic energy  EATOM  =       206.13311910
  free energy    TOTEN  =         8.38655924 eV

  energy without entropy =        8.38749363  energy(sigma->0) =        8.38702644

[...]

 eigenvalue-minimisations  :  1752
 total energy-change (2. order) :-0.1910641E+02  (-0.1862769E+02)
 number of electron       8.0000000 magnetization
 augmentation part        8.0000000 magnetization

[...]

 Broyden mixing:
  rms(total) = 0.28598E+00    rms(broyden)= 0.28598E+00
  rms(prec ) = 0.81547E+00
  weight for this iteration     100.00

[...]

 eigenvalues of (default mixing * dielectric matrix)
  average eigenvalue GAMMA=   2.4667
  2.4667

[...]

 eigenvalue-minimisations  :   912
 total energy-change (2. order) :-0.1213976E-08  (-0.1973831E-12)
 number of electron       8.0000001 magnetization
 augmentation part       -0.4577747 magnetization

[...]

 eigenvalue-minimisations  :   712
 total energy-change (2. order) : 0.1488161E-09  (-0.5180771E-13)
 number of electron       8.0000001 magnetization
 augmentation part       -0.4577747 magnetization

 Broyden mixing:
  rms(total) = 0.13912E-07    rms(broyden)= 0.13688E-07
  rms(prec ) = 0.39144E-07
  weight for this iteration     100.00

 eigenvalues of (default mixing * dielectric matrix)
  average eigenvalue GAMMA=   1.9352
  3.2820  2.2155  2.8774  2.7767  2.6238  2.5097  0.9726  1.0103  1.0103  1.0046
  1.0046

[...]

----------------------------------------- Iteration    1(  17)  ---------------------------------------

 eigenvalue-minimisations  :   736
 total energy-change (2. order) :-0.2415845E-11  ( 0.6465983E-13)
 number of electron       8.0000001 magnetization
 augmentation part       -0.4577747 magnetization

 Free energy of the ion-electron system (eV)
  alpha Z        PSCENC =         3.16331175
  Ewald energy   TEWEN  =      -223.92168270
  -Hartree energ DENC   =       -15.65709172
  -exchange      EXHF   =         0.00000000
  -V(xc)+E(xc)   XCENC  =       -18.24299951
  PAW double counting   =        72.40195463      -37.38743742
  entropy T*S    EENTRO =        -0.00000000
  eigenvalues    EBANDS =         2.67873210
  atomic energy  EATOM  =       206.13311910
  free energy    TOTEN  =       -10.83209379 eV

  energy without entropy =      -10.83209378  energy(sigma->0) =      -10.83209378

 average (electrostatic) potential at core
  the test charge radii are     0.9892
  (the norm of the test charge is              1.0000)
       1 -83.9236       2 -83.9236

 E-fermi :   5.5548     XC(G=0):  -9.1712     alpha+bet :-11.2691

 k-point     1 :       0.0000    0.0000    0.0000
  band No.  band energies     occupation
      1      -6.3239      2.00000
      2       5.2238      2.00000
      3       5.2238      2.00000
      4       5.2238      2.00000
      5       7.7624      0.00000
      6       7.7624      0.00000
      7       7.7624      0.00000
      8       7.9067      0.00000

[...]

 k-point    72 :      -0.2500    0.5000    0.2500
  band No.  band energies     occupation
      1      -2.2604      2.00000
      2      -2.2604      2.00000
      3       1.6272      2.00000
      4       1.6272      2.00000
      5       9.4965      0.00000
      6       9.4965      0.00000
      7      10.0106      0.00000
      8      10.0106      0.00000

 soft charge-density along one line, spin component           1
         0         1         2         3         4         5         6         7         8         9
 total charge-density along one line

------------------------ aborting loop because EDIFF is reached ----------------------------------------

  FORCE on cell =-STRESS in cart. coord.  units (eV):
  Direction    XX          YY          ZZ          XY          YZ          ZX
  Alpha Z     3.16331     3.16331     3.16331
  Ewald     -74.64059   -74.64059   -74.64059    -0.00000    -0.00000    -0.00000
  Hartree     5.21903     5.21903     5.21903     0.00000     0.00000     0.00000
  E(xc)     -25.01975   -25.01975   -25.01975    -0.00000    -0.00000    -0.00000
  Local     -30.07800   -30.07800   -30.07800     0.00001     0.00001     0.00001
  n-local    77.72387    79.15429    73.45116     2.10910    -1.22558     0.49079
  augment   -11.64816   -11.64816   -11.64816    -0.00001    -0.00001    -0.00001
  Kinetic    57.52503    55.22174    53.32551     3.57487    -0.74296     1.03512
  Fock        0.00000     0.00000     0.00000     0.00000     0.00000     0.00000
  Total      -0.87030    -0.87030    -0.87030    -0.00000    -0.00000    -0.00000
  in kB     -32.75733   -32.75733   -32.75733    -0.00000    -0.00000    -0.00000

 VOLUME and BASIS-vectors are now :
  energy-cutoff  :      600.00
  volume of cell :       42.57
      direct lattice vectors                 reciprocal lattice vectors
     0.000000000  2.771281292  2.771281292    -0.180421959  0.180421959  0.180421959
     2.771281292  0.000000000  2.771281292     0.180421959 -0.180421959  0.180421959
     2.771281292  2.771281292  0.000000000     0.180421959  0.180421959 -0.180421959

  length of vectors
     3.919183588  3.919183588  3.919183588     0.312500000  0.312500000  0.312500000

 FORCES acting on ions
    electron-ion (+dipol)            ewald-force                    non-local-force                 convergence-correction
   0.280E-06 0.280E-06 0.250E-06   0.274E-14 0.853E-14 0.450E-14   -.208E-16 0.486E-16 0.867E-16   0.226E-12 0.224E-12 0.228E-12
   -.280E-06 -.280E-06 -.250E-06   -.269E-14 -.849E-14 -.424E-14   0.208E-16 -.625E-16 -.833E-16   -.225E-12 -.225E-12 -.227E-12
   -.463E-13 -.149E-13 0.437E-13   0.480E-16 0.375E-16 0.260E-15   0.000E+00 -.139E-16 0.347E-17   0.549E-15 -.493E-15 0.111E-14

 POSITION                                       TOTAL-FORCE (eV/Angst)
      0.00000      0.00000      0.00000         0.000000      0.000000      0.000000
      1.38564      1.38564      1.38564        -0.000000     -0.000000     -0.000000
    total drift:                               -0.000000     -0.000000      0.000000

  FREE ENERGIE OF THE ION-ELECTRON SYSTEM (eV)
  free  energy   TOTEN  =       -10.83209379 eV

  energy  without entropy=      -10.83209378  energy(sigma->0) =      -10.83209378

 writing wavefunctions